c "572843.clq"
p edge 202 2976
e 1 17
e 1 18
e 1 20
e 1 21
e 1 22
e 1 23
e 1 24
e 1 25
e 1 26
e 1 27
e 1 29
e 1 32
e 1 33
e 1 34
e 1 35
e 1 36
e 1 40
e 1 41
e 1 42
e 1 43
e 1 46
e 1 48
e 1 54
e 1 55
e 1 56
e 1 57
e 1 59
e 1 60
e 1 61
e 1 62
e 1 64
e 1 67
e 1 68
e 1 69
e 1 76
e 1 82
e 1 83
e 1 84
e 1 88
e 1 90
e 1 95
e 1 97
e 1 98
e 1 100
e 1 103
e 1 104
e 1 106
e 1 108
e 1 109
e 1 110
e 1 113
e 1 116
e 1 118
e 1 122
e 1 128
e 1 132
e 1 134
e 1 136
e 1 140
e 1 145
e 1 153
e 1 156
e 1 158
e 1 160
e 1 163
e 1 166
e 1 167
e 1 168
e 1 179
e 1 187
e 1 188
e 1 202
e 2 17
e 2 18
e 2 19
e 2 20
e 2 21
e 2 22
e 2 23
e 2 25
e 2 26
e 2 27
e 2 29
e 2 30
e 2 32
e 2 33
e 2 36
e 2 37
e 2 38
e 2 39
e 2 40
e 2 41
e 2 43
e 2 44
e 2 48
e 2 50
e 2 56
e 2 57
e 2 66
e 2 67
e 2 69
e 2 72
e 2 74
e 2 75
e 2 76
e 2 77
e 2 78
e 2 81
e 2 86
e 2 87
e 2 88
e 2 89
e 2 92
e 2 99
e 2 101
e 2 106
e 2 118
e 2 122
e 2 128
e 2 139
e 2 143
e 2 145
e 2 152
e 2 163
e 2 171
e 2 177
e 2 190
e 3 17
e 3 18
e 3 19
e 3 20
e 3 26
e 3 35
e 3 53
e 3 59
e 3 60
e 3 62
e 3 63
e 3 81
e 3 143
e 3 184
e 3 193
e 3 200
e 4 17
e 4 18
e 4 19
e 4 23
e 4 25
e 4 27
e 4 36
e 4 41
e 4 53
e 4 74
e 4 86
e 4 102
e 4 113
e 4 133
e 4 147
e 4 151
e 5 17
e 5 18
e 5 19
e 5 21
e 5 24
e 5 25
e 5 28
e 5 29
e 5 30
e 5 31
e 5 33
e 5 34
e 5 39
e 5 44
e 5 45
e 5 46
e 5 47
e 5 55
e 5 56
e 5 57
e 5 58
e 5 65
e 5 66
e 5 69
e 5 75
e 5 95
e 5 103
e 5 129
e 5 132
e 5 134
e 5 146
e 5 151
e 5 153
e 5 162
e 5 163
e 5 167
e 5 172
e 5 175
e 5 180
e 5 181
e 5 182
e 5 184
e 6 17
e 6 18
e 6 19
e 6 20
e 6 21
e 6 22
e 6 23
e 6 24
e 6 27
e 6 35
e 6 38
e 6 39
e 6 43
e 6 46
e 6 47
e 6 49
e 6 50
e 6 55
e 6 58
e 6 59
e 6 61
e 6 64
e 6 69
e 6 70
e 6 72
e 6 83
e 6 92
e 6 94
e 6 96
e 6 113
e 6 121
e 6 122
e 6 135
e 6 137
e 6 148
e 6 158
e 6 164
e 6 172
e 6 190
e 6 197
e 7 17
e 7 18
e 7 19
e 7 20
e 7 22
e 7 24
e 7 38
e 7 44
e 7 45
e 7 48
e 7 56
e 7 65
e 7 68
e 7 70
e 7 72
e 7 101
e 7 124
e 7 135
e 7 143
e 7 152
e 7 170
e 7 181
e 7 183
e 7 199
e 7 201
e 8 17
e 8 18
e 8 19
e 8 20
e 8 21
e 8 22
e 8 23
e 8 24
e 8 25
e 8 29
e 8 32
e 8 33
e 8 34
e 8 37
e 8 51
e 8 59
e 8 83
e 8 84
e 8 91
e 8 94
e 8 119
e 8 126
e 8 152
e 8 155
e 8 171
e 8 172
e 8 179
e 9 17
e 9 20
e 9 22
e 9 23
e 9 24
e 9 26
e 9 27
e 9 32
e 9 55
e 9 59
e 9 63
e 9 74
e 9 95
e 9 102
e 9 105
e 9 112
e 9 113
e 9 129
e 9 148
e 9 149
e 9 156
e 9 168
e 9 177
e 10 17
e 10 18
e 10 19
e 10 20
e 10 21
e 10 23
e 10 24
e 10 25
e 10 26
e 10 28
e 10 31
e 10 35
e 10 37
e 10 38
e 10 39
e 10 42
e 10 44
e 10 45
e 10 52
e 10 55
e 10 66
e 10 69
e 10 71
e 10 72
e 10 77
e 10 80
e 10 85
e 10 87
e 10 88
e 10 94
e 10 99
e 10 101
e 10 104
e 10 112
e 10 118
e 10 122
e 10 134
e 10 135
e 10 140
e 10 146
e 10 164
e 10 171
e 10 173
e 10 190
e 11 17
e 11 18
e 11 19
e 11 20
e 11 21
e 11 22
e 11 24
e 11 25
e 11 27
e 11 28
e 11 29
e 11 32
e 11 36
e 11 37
e 11 38
e 11 39
e 11 43
e 11 45
e 11 46
e 11 52
e 11 54
e 11 55
e 11 62
e 11 65
e 11 68
e 11 71
e 11 73
e 11 82
e 11 86
e 11 89
e 11 91
e 11 98
e 11 100
e 11 104
e 11 105
e 11 108
e 11 109
e 11 119
e 11 126
e 11 130
e 11 131
e 11 140
e 11 145
e 11 157
e 11 162
e 11 167
e 11 169
e 11 175
e 11 180
e 11 192
e 11 199
e 12 17
e 12 18
e 12 19
e 12 20
e 12 21
e 12 22
e 12 23
e 12 25
e 12 26
e 12 30
e 12 33
e 12 34
e 12 36
e 12 39
e 12 40
e 12 42
e 12 44
e 12 45
e 12 47
e 12 54
e 12 58
e 12 63
e 12 65
e 12 72
e 12 81
e 12 92
e 12 103
e 12 104
e 12 107
e 12 116
e 12 118
e 12 124
e 12 130
e 12 131
e 12 143
e 12 148
e 12 149
e 12 152
e 12 182
e 12 195
e 13 17
e 13 18
e 13 19
e 13 20
e 13 21
e 13 22
e 13 23
e 13 24
e 13 27
e 13 28
e 13 30
e 13 31
e 13 33
e 13 34
e 13 36
e 13 37
e 13 38
e 13 39
e 13 40
e 13 43
e 13 44
e 13 45
e 13 47
e 13 49
e 13 56
e 13 60
e 13 67
e 13 69
e 13 72
e 13 84
e 13 86
e 13 87
e 13 90
e 13 91
e 13 109
e 13 112
e 13 113
e 13 114
e 13 119
e 13 140
e 13 145
e 13 167
e 13 176
e 13 188
e 13 192
e 13 199
e 14 17
e 14 18
e 14 19
e 14 21
e 14 23
e 14 27
e 14 29
e 14 30
e 14 31
e 14 38
e 14 49
e 14 70
e 14 78
e 14 84
e 14 91
e 14 92
e 14 95
e 14 102
e 14 107
e 14 108
e 14 123
e 14 133
e 14 138
e 14 139
e 14 161
e 14 164
e 14 170
e 14 181
e 14 182
e 14 183
e 15 17
e 15 18
e 15 19
e 15 20
e 15 21
e 15 22
e 15 23
e 15 26
e 15 27
e 15 28
e 15 29
e 15 34
e 15 35
e 15 37
e 15 38
e 15 39
e 15 41
e 15 43
e 15 44
e 15 47
e 15 52
e 15 57
e 15 66
e 15 67
e 15 80
e 15 92
e 15 95
e 15 97
e 15 105
e 15 113
e 15 120
e 15 121
e 15 128
e 15 133
e 15 135
e 15 138
e 15 141
e 15 145
e 15 148
e 15 170
e 15 174
e 15 188
e 15 196
e 16 17
e 16 18
e 16 19
e 16 20
e 16 21
e 16 22
e 16 24
e 16 26
e 16 29
e 16 30
e 16 31
e 16 35
e 16 36
e 16 41
e 16 43
e 16 45
e 16 46
e 16 47
e 16 49
e 16 52
e 16 60
e 16 61
e 16 63
e 16 65
e 16 71
e 16 72
e 16 74
e 16 75
e 16 111
e 16 119
e 16 125
e 16 138
e 16 139
e 16 149
e 16 159
e 16 161
e 16 169
e 16 194
e 17 18
e 17 19
e 17 20
e 17 21
e 17 22
e 17 23
e 17 24
e 17 25
e 17 26
e 17 27
e 17 28
e 17 30
e 17 31
e 17 32
e 17 33
e 17 34
e 17 35
e 17 36
e 17 38
e 17 42
e 17 43
e 17 44
e 17 46
e 17 47
e 17 48
e 17 50
e 17 51
e 17 53
e 17 57
e 17 58
e 17 60
e 17 63
e 17 64
e 17 68
e 17 70
e 17 72
e 17 75
e 17 76
e 17 78
e 17 79
e 17 80
e 17 82
e 17 85
e 17 86
e 17 88
e 17 91
e 17 93
e 17 96
e 17 98
e 17 99
e 17 101
e 17 103
e 17 105
e 17 117
e 17 118
e 17 120
e 17 121
e 17 124
e 17 125
e 17 128
e 17 130
e 17 131
e 17 135
e 17 138
e 17 146
e 17 148
e 17 149
e 17 150
e 17 160
e 17 164
e 17 167
e 17 170
e 17 175
e 17 180
e 17 184
e 17 187
e 17 191
e 17 192
e 17 199
e 17 200
e 18 19
e 18 20
e 18 21
e 18 22
e 18 23
e 18 24
e 18 25
e 18 26
e 18 27
e 18 28
e 18 29
e 18 30
e 18 31
e 18 34
e 18 35
e 18 37
e 18 39
e 18 40
e 18 41
e 18 43
e 18 44
e 18 46
e 18 47
e 18 49
e 18 53
e 18 54
e 18 55
e 18 56
e 18 57
e 18 58
e 18 64
e 18 66
e 18 67
e 18 70
e 18 75
e 18 83
e 18 85
e 18 86
e 18 97
e 18 99
e 18 100
e 18 107
e 18 109
e 18 110
e 18 111
e 18 123
e 18 127
e 18 128
e 18 129
e 18 140
e 18 150
e 18 153
e 18 155
e 18 156
e 18 157
e 18 168
e 18 169
e 18 176
e 18 179
e 18 198
e 18 201
e 19 20
e 19 21
e 19 22
e 19 23
e 19 24
e 19 25
e 19 26
e 19 27
e 19 28
e 19 29
e 19 31
e 19 32
e 19 33
e 19 35
e 19 37
e 19 38
e 19 43
e 19 44
e 19 45
e 19 46
e 19 48
e 19 49
e 19 50
e 19 51
e 19 54
e 19 55
e 19 56
e 19 59
e 19 64
e 19 67
e 19 68
e 19 76
e 19 77
e 19 79
e 19 80
e 19 81
e 19 82
e 19 83
e 19 85
e 19 88
e 19 92
e 19 94
e 19 98
e 19 104
e 19 108
e 19 109
e 19 112
e 19 114
e 19 115
e 19 117
e 19 119
e 19 121
e 19 122
e 19 124
e 19 125
e 19 127
e 19 128
e 19 132
e 19 134
e 19 136
e 19 138
e 19 142
e 19 143
e 19 148
e 19 151
e 19 152
e 19 156
e 19 162
e 19 169
e 19 171
e 19 179
e 19 185
e 19 186
e 19 187
e 19 191
e 19 193
e 19 194
e 20 21
e 20 22
e 20 23
e 20 24
e 20 25
e 20 28
e 20 29
e 20 30
e 20 31
e 20 32
e 20 34
e 20 35
e 20 36
e 20 39
e 20 40
e 20 41
e 20 42
e 20 43
e 20 44
e 20 45
e 20 48
e 20 49
e 20 51
e 20 52
e 20 57
e 20 58
e 20 62
e 20 63
e 20 64
e 20 76
e 20 77
e 20 80
e 20 87
e 20 90
e 20 91
e 20 96
e 20 98
e 20 101
e 20 102
e 20 108
e 20 109
e 20 115
e 20 117
e 20 123
e 20 125
e 20 126
e 20 130
e 20 132
e 20 138
e 20 144
e 20 145
e 20 147
e 20 148
e 20 157
e 20 161
e 20 165
e 20 166
e 20 168
e 20 170
e 20 172
e 20 179
e 20 182
e 20 183
e 20 187
e 20 196
e 20 199
e 20 202
e 21 22
e 21 25
e 21 26
e 21 28
e 21 29
e 21 30
e 21 32
e 21 33
e 21 34
e 21 37
e 21 38
e 21 39
e 21 41
e 21 42
e 21 44
e 21 46
e 21 49
e 21 50
e 21 52
e 21 56
e 21 57
e 21 59
e 21 60
e 21 62
e 21 67
e 21 71
e 21 73
e 21 79
e 21 87
e 21 92
e 21 95
e 21 98
e 21 99
e 21 102
e 21 107
e 21 110
e 21 111
e 21 117
e 21 120
e 21 121
e 21 124
e 21 126
e 21 127
e 21 129
e 21 133
e 21 144
e 21 157
e 21 174
e 21 186
e 21 193
e 21 194
e 22 23
e 22 24
e 22 25
e 22 26
e 22 27
e 22 28
e 22 29
e 22 30
e 22 31
e 22 33
e 22 34
e 22 38
e 22 40
e 22 46
e 22 47
e 22 48
e 22 49
e 22 50
e 22 54
e 22 56
e 22 57
e 22 60
e 22 61
e 22 63
e 22 69
e 22 71
e 22 73
e 22 74
e 22 75
e 22 77
e 22 79
e 22 81
e 22 87
e 22 88
e 22 90
e 22 101
e 22 103
e 22 106
e 22 108
e 22 112
e 22 131
e 22 135
e 22 141
e 22 154
e 22 156
e 22 159
e 22 160
e 22 171
e 22 176
e 22 178
e 22 186
e 22 197
e 22 201
e 23 24
e 23 25
e 23 26
e 23 27
e 23 28
e 23 30
e 23 31
e 23 32
e 23 34
e 23 35
e 23 36
e 23 37
e 23 40
e 23 42
e 23 45
e 23 46
e 23 47
e 23 50
e 23 54
e 23 56
e 23 58
e 23 59
e 23 62
e 23 65
e 23 67
e 23 73
e 23 76
e 23 77
e 23 78
e 23 79
e 23 81
e 23 82
e 23 87
e 23 89
e 23 92
e 23 93
e 23 95
e 23 100
e 23 101
e 23 102
e 23 108
e 23 112
e 23 113
e 23 123
e 23 127
e 23 129
e 23 134
e 23 141
e 23 142
e 23 148
e 23 163
e 23 172
e 23 173
e 23 179
e 23 183
e 23 185
e 24 25
e 24 26
e 24 27
e 24 28
e 24 29
e 24 30
e 24 32
e 24 33
e 24 34
e 24 35
e 24 36
e 24 40
e 24 41
e 24 45
e 24 47
e 24 48
e 24 50
e 24 54
e 24 55
e 24 56
e 24 57
e 24 59
e 24 62
e 24 66
e 24 67
e 24 68
e 24 69
e 24 70
e 24 71
e 24 74
e 24 75
e 24 77
e 24 79
e 24 80
e 24 83
e 24 85
e 24 90
e 24 98
e 24 100
e 24 102
e 24 106
e 24 109
e 24 110
e 24 114
e 24 115
e 24 122
e 24 126
e 24 133
e 24 143
e 24 153
e 24 155
e 24 159
e 24 160
e 24 166
e 24 170
e 24 171
e 24 174
e 24 176
e 24 178
e 24 185
e 24 189
e 24 194
e 24 198
e 24 200
e 24 201
e 25 26
e 25 27
e 25 28
e 25 30
e 25 31
e 25 32
e 25 33
e 25 34
e 25 35
e 25 37
e 25 40
e 25 42
e 25 44
e 25 46
e 25 51
e 25 54
e 25 56
e 25 68
e 25 73
e 25 74
e 25 76
e 25 90
e 25 93
e 25 97
e 25 100
e 25 115
e 25 118
e 25 119
e 25 121
e 25 130
e 25 132
e 25 133
e 25 134
e 25 136
e 25 140
e 25 141
e 25 154
e 25 160
e 25 163
e 25 165
e 25 168
e 25 169
e 25 173
e 25 188
e 25 194
e 25 195
e 25 196
e 26 28
e 26 29
e 26 32
e 26 35
e 26 36
e 26 37
e 26 38
e 26 39
e 26 40
e 26 42
e 26 43
e 26 47
e 26 49
e 26 50
e 26 52
e 26 58
e 26 59
e 26 60
e 26 64
e 26 68
e 26 70
e 26 75
e 26 77
e 26 84
e 26 85
e 26 86
e 26 88
e 26 90
e 26 91
e 26 92
e 26 94
e 26 97
e 26 107
e 26 116
e 26 126
e 26 129
e 26 133
e 26 144
e 26 152
e 26 154
e 26 164
e 26 166
e 26 175
e 26 180
e 26 181
e 26 183
e 26 185
e 26 198
e 27 28
e 27 31
e 27 33
e 27 42
e 27 44
e 27 45
e 27 49
e 27 50
e 27 52
e 27 53
e 27 61
e 27 62
e 27 65
e 27 67
e 27 71
e 27 73
e 27 76
e 27 82
e 27 83
e 27 84
e 27 87
e 27 94
e 27 98
e 27 100
e 27 104
e 27 125
e 27 126
e 27 127
e 27 130
e 27 132
e 27 135
e 27 136
e 27 143
e 27 147
e 27 149
e 27 154
e 27 158
e 27 162
e 27 164
e 27 170
e 27 171
e 27 173
e 27 175
e 27 179
e 27 180
e 27 183
e 27 189
e 27 196
e 27 197
e 27 200
e 27 202
e 28 29
e 28 30
e 28 31
e 28 32
e 28 33
e 28 39
e 28 43
e 28 48
e 28 49
e 28 51
e 28 55
e 28 58
e 28 61
e 28 66
e 28 71
e 28 79
e 28 85
e 28 87
e 28 88
e 28 94
e 28 100
e 28 105
e 28 106
e 28 108
e 28 109
e 28 110
e 28 111
e 28 114
e 28 123
e 28 125
e 28 136
e 28 141
e 28 147
e 28 156
e 28 160
e 28 162
e 28 184
e 28 188
e 28 192
e 28 196
e 29 30
e 29 31
e 29 32
e 29 33
e 29 36
e 29 39
e 29 42
e 29 48
e 29 49
e 29 50
e 29 51
e 29 53
e 29 56
e 29 57
e 29 68
e 29 75
e 29 77
e 29 81
e 29 83
e 29 84
e 29 87
e 29 94
e 29 95
e 29 97
e 29 101
e 29 107
e 29 112
e 29 119
e 29 126
e 29 132
e 29 134
e 29 138
e 29 139
e 29 164
e 29 173
e 29 176
e 29 177
e 29 188
e 29 192
e 29 193
e 30 31
e 30 32
e 30 34
e 30 35
e 30 36
e 30 37
e 30 40
e 30 41
e 30 42
e 30 44
e 30 45
e 30 48
e 30 51
e 30 52
e 30 53
e 30 54
e 30 58
e 30 61
e 30 63
e 30 67
e 30 68
e 30 70
e 30 76
e 30 78
e 30 83
e 30 86
e 30 89
e 30 93
e 30 96
e 30 99
e 30 100
e 30 106
e 30 110
e 30 112
e 30 113
e 30 115
e 30 116
e 30 127
e 30 128
e 30 136
e 30 137
e 30 147
e 30 148
e 30 149
e 30 150
e 30 153
e 30 156
e 30 157
e 30 162
e 30 170
e 30 171
e 30 172
e 30 176
e 30 178
e 30 189
e 30 197
e 30 198
e 31 36
e 31 41
e 31 42
e 31 43
e 31 53
e 31 54
e 31 59
e 31 60
e 31 61
e 31 63
e 31 68
e 31 69
e 31 71
e 31 72
e 31 73
e 31 79
e 31 81
e 31 84
e 31 91
e 31 93
e 31 94
e 31 102
e 31 106
e 31 118
e 31 119
e 31 121
e 31 127
e 31 138
e 31 140
e 31 144
e 31 145
e 31 152
e 31 153
e 31 159
e 31 163
e 31 182
e 32 33
e 32 43
e 32 50
e 32 52
e 32 55
e 32 57
e 32 70
e 32 71
e 32 73
e 32 74
e 32 75
e 32 76
e 32 78
e 32 82
e 32 84
e 32 86
e 32 88
e 32 93
e 32 97
e 32 101
e 32 107
e 32 117
e 32 125
e 32 131
e 32 137
e 32 141
e 32 150
e 32 151
e 32 156
e 32 173
e 32 177
e 32 185
e 32 189
e 32 196
e 33 34
e 33 37
e 33 38
e 33 39
e 33 47
e 33 50
e 33 54
e 33 59
e 33 63
e 33 64
e 33 65
e 33 67
e 33 74
e 33 78
e 33 79
e 33 82
e 33 84
e 33 88
e 33 90
e 33 97
e 33 101
e 33 102
e 33 106
e 33 109
e 33 111
e 33 120
e 33 121
e 33 131
e 33 149
e 33 159
e 33 160
e 33 162
e 33 164
e 33 182
e 33 195
e 34 35
e 34 36
e 34 37
e 34 40
e 34 41
e 34 42
e 34 47
e 34 51
e 34 52
e 34 53
e 34 54
e 34 55
e 34 61
e 34 69
e 34 77
e 34 79
e 34 80
e 34 83
e 34 89
e 34 100
e 34 101
e 34 102
e 34 103
e 34 104
e 34 106
e 34 110
e 34 115
e 34 117
e 34 120
e 34 121
e 34 132
e 34 138
e 34 143
e 34 149
e 34 154
e 34 164
e 34 167
e 34 168
e 34 175
e 34 178
e 34 186
e 34 191
e 34 194
e 34 195
e 35 45
e 35 51
e 35 53
e 35 67
e 35 71
e 35 73
e 35 83
e 35 99
e 35 123
e 35 142
e 35 147
e 35 148
e 35 166
e 35 181
e 36 37
e 36 38
e 36 40
e 36 41
e 36 42
e 36 43
e 36 46
e 36 47
e 36 53
e 36 54
e 36 57
e 36 58
e 36 60
e 36 61
e 36 64
e 36 65
e 36 68
e 36 70
e 36 76
e 36 92
e 36 95
e 36 110
e 36 128
e 36 132
e 36 151
e 36 157
e 36 170
e 36 171
e 36 172
e 36 178
e 36 181
e 36 189
e 36 190
e 37 38
e 37 39
e 37 40
e 37 41
e 37 45
e 37 46
e 37 48
e 37 49
e 37 51
e 37 53
e 37 59
e 37 60
e 37 65
e 37 67
e 37 73
e 37 76
e 37 83
e 37 84
e 37 86
e 37 87
e 37 89
e 37 90
e 37 91
e 37 93
e 37 94
e 37 98
e 37 101
e 37 103
e 37 114
e 37 115
e 37 116
e 37 119
e 37 120
e 37 122
e 37 123
e 37 127
e 37 141
e 37 144
e 37 145
e 37 147
e 37 154
e 37 158
e 37 160
e 37 169
e 37 170
e 37 173
e 37 182
e 37 196
e 37 199
e 37 202
e 38 41
e 38 62
e 38 83
e 38 84
e 38 90
e 38 126
e 38 139
e 38 146
e 38 160
e 38 174
e 38 184
e 38 187
e 39 40
e 39 49
e 39 51
e 39 52
e 39 56
e 39 58
e 39 59
e 39 63
e 39 80
e 39 83
e 39 85
e 39 86
e 39 87
e 39 93
e 39 104
e 39 129
e 39 135
e 39 136
e 39 151
e 39 159
e 39 167
e 39 193
e 39 194
e 39 202
e 40 41
e 40 42
e 40 46
e 40 47
e 40 48
e 40 50
e 40 54
e 40 62
e 40 67
e 40 70
e 40 71
e 40 74
e 40 75
e 40 76
e 40 80
e 40 82
e 40 85
e 40 87
e 40 94
e 40 97
e 40 103
e 40 106
e 40 111
e 40 113
e 40 125
e 40 137
e 40 139
e 40 140
e 40 154
e 40 158
e 40 171
e 40 177
e 40 184
e 40 186
e 40 195
e 40 198
e 41 44
e 41 45
e 41 49
e 41 50
e 41 51
e 41 53
e 41 58
e 41 65
e 41 66
e 41 67
e 41 75
e 41 79
e 41 81
e 41 87
e 41 89
e 41 100
e 41 103
e 41 109
e 41 113
e 41 114
e 41 128
e 41 130
e 41 133
e 41 137
e 41 138
e 41 147
e 41 157
e 41 174
e 41 175
e 41 176
e 41 177
e 41 189
e 41 192
e 42 48
e 42 51
e 42 52
e 42 53
e 42 55
e 42 58
e 42 64
e 42 70
e 42 74
e 42 76
e 42 77
e 42 85
e 42 89
e 42 103
e 42 107
e 42 115
e 42 121
e 42 122
e 42 126
e 42 141
e 42 145
e 42 155
e 42 156
e 42 157
e 42 158
e 42 159
e 42 163
e 42 164
e 42 189
e 42 193
e 42 202
e 43 48
e 43 51
e 43 65
e 43 71
e 43 72
e 43 78
e 43 92
e 43 98
e 43 115
e 43 118
e 43 122
e 43 133
e 43 134
e 43 144
e 43 150
e 43 152
e 43 173
e 43 182
e 44 48
e 44 56
e 44 60
e 44 70
e 44 78
e 44 81
e 44 86
e 44 89
e 44 90
e 44 97
e 44 110
e 44 111
e 44 112
e 44 115
e 44 122
e 44 130
e 44 142
e 44 151
e 44 155
e 44 182
e 44 184
e 44 194
e 45 46
e 45 60
e 45 63
e 45 64
e 45 66
e 45 69
e 45 72
e 45 74
e 45 85
e 45 90
e 45 91
e 45 92
e 45 99
e 45 106
e 45 117
e 45 135
e 45 137
e 45 139
e 45 151
e 45 156
e 45 161
e 45 177
e 45 180
e 45 187
e 45 191
e 45 201
e 46 58
e 46 61
e 46 62
e 46 72
e 46 73
e 46 84
e 46 87
e 46 89
e 46 110
e 46 116
e 46 127
e 46 130
e 46 132
e 46 166
e 46 169
e 46 191
e 46 197
e 47 52
e 47 53
e 47 55
e 47 96
e 47 98
e 47 100
e 47 106
e 47 110
e 47 119
e 47 120
e 47 130
e 47 133
e 47 140
e 47 146
e 47 147
e 47 154
e 47 155
e 47 164
e 47 175
e 47 185
e 47 194
e 47 196
e 47 197
e 47 200
e 48 50
e 48 52
e 48 54
e 48 57
e 48 65
e 48 69
e 48 78
e 48 79
e 48 81
e 48 82
e 48 108
e 48 109
e 48 115
e 48 147
e 48 150
e 48 162
e 48 189
e 48 195
e 48 197
e 49 52
e 49 53
e 49 56
e 49 58
e 49 59
e 49 60
e 49 63
e 49 65
e 49 71
e 49 74
e 49 77
e 49 82
e 49 83
e 49 84
e 49 85
e 49 86
e 49 96
e 49 99
e 49 101
e 49 106
e 49 108
e 49 111
e 49 123
e 49 124
e 49 130
e 49 139
e 49 150
e 49 155
e 49 157
e 49 173
e 49 175
e 49 177
e 49 184
e 49 190
e 49 191
e 49 202
e 50 51
e 50 55
e 50 62
e 50 66
e 50 71
e 50 79
e 50 85
e 50 86
e 50 93
e 50 94
e 50 107
e 50 109
e 50 112
e 50 117
e 50 124
e 50 158
e 50 159
e 50 165
e 50 188
e 50 191
e 50 193
e 51 61
e 51 66
e 51 68
e 51 70
e 51 74
e 51 80
e 51 82
e 51 96
e 51 99
e 51 103
e 51 111
e 51 121
e 51 147
e 51 150
e 51 155
e 51 162
e 51 171
e 51 174
e 51 178
e 51 185
e 51 194
e 52 62
e 52 74
e 52 77
e 52 81
e 52 84
e 52 103
e 52 104
e 52 105
e 52 109
e 52 112
e 52 144
e 52 164
e 52 171
e 52 173
e 52 190
e 53 55
e 53 57
e 53 62
e 53 74
e 53 77
e 53 81
e 53 85
e 53 101
e 53 105
e 53 116
e 53 117
e 53 122
e 53 124
e 53 142
e 53 181
e 54 57
e 54 61
e 54 62
e 54 64
e 54 66
e 54 68
e 54 69
e 54 70
e 54 75
e 54 76
e 54 90
e 54 98
e 54 103
e 54 108
e 54 113
e 54 114
e 54 117
e 54 129
e 54 131
e 54 134
e 54 143
e 54 144
e 54 146
e 54 158
e 54 162
e 54 163
e 54 165
e 54 177
e 54 178
e 55 60
e 55 69
e 55 73
e 55 76
e 55 78
e 55 92
e 55 95
e 55 96
e 55 107
e 55 122
e 55 132
e 55 159
e 55 161
e 55 165
e 55 193
e 56 60
e 56 61
e 56 63
e 56 64
e 56 82
e 56 96
e 56 97
e 56 101
e 56 102
e 56 105
e 56 108
e 56 118
e 56 121
e 56 125
e 56 134
e 56 148
e 56 151
e 56 152
e 56 155
e 56 165
e 56 167
e 56 169
e 56 179
e 56 180
e 56 183
e 56 199
e 57 61
e 57 64
e 57 65
e 57 66
e 57 72
e 57 73
e 57 78
e 57 104
e 57 114
e 57 127
e 57 128
e 57 129
e 57 134
e 57 153
e 57 161
e 57 163
e 57 167
e 57 168
e 58 59
e 58 68
e 58 69
e 58 78
e 58 79
e 58 80
e 58 89
e 58 102
e 58 107
e 58 120
e 58 129
e 58 131
e 58 142
e 58 146
e 58 152
e 58 154
e 58 168
e 58 174
e 58 181
e 58 191
e 58 195
e 59 61
e 59 62
e 59 63
e 59 68
e 59 73
e 59 80
e 59 82
e 59 88
e 59 91
e 59 107
e 59 109
e 59 131
e 59 137
e 59 143
e 59 147
e 59 170
e 59 188
e 60 63
e 60 64
e 60 66
e 60 69
e 60 72
e 60 73
e 60 82
e 60 86
e 60 88
e 60 94
e 60 96
e 60 97
e 60 99
e 60 121
e 60 122
e 60 134
e 60 135
e 60 137
e 60 139
e 60 142
e 60 154
e 60 155
e 60 165
e 60 181
e 60 187
e 60 198
e 60 200
e 61 64
e 61 65
e 61 78
e 61 95
e 61 96
e 61 97
e 61 127
e 61 135
e 61 137
e 61 141
e 61 148
e 61 150
e 61 175
e 61 181
e 61 197
e 61 198
e 62 75
e 62 78
e 62 93
e 62 115
e 62 123
e 62 127
e 62 134
e 62 144
e 62 145
e 62 146
e 62 161
e 62 164
e 62 165
e 62 194
e 62 201
e 63 66
e 63 85
e 63 89
e 63 91
e 63 94
e 63 100
e 63 109
e 63 119
e 63 121
e 63 135
e 63 136
e 63 139
e 63 141
e 63 194
e 64 66
e 64 87
e 64 88
e 64 99
e 64 105
e 64 124
e 64 154
e 64 159
e 64 163
e 64 165
e 64 171
e 64 172
e 64 201
e 65 93
e 65 111
e 65 113
e 65 138
e 65 151
e 65 176
e 65 180
e 66 70
e 66 77
e 66 89
e 66 92
e 66 108
e 66 110
e 66 119
e 66 124
e 66 142
e 66 143
e 66 144
e 66 146
e 66 150
e 66 190
e 67 78
e 67 80
e 67 90
e 67 93
e 67 99
e 67 102
e 67 105
e 67 110
e 67 135
e 67 138
e 67 139
e 67 175
e 67 181
e 67 186
e 67 198
e 68 71
e 68 72
e 68 73
e 68 80
e 68 81
e 68 113
e 68 120
e 68 147
e 68 148
e 68 155
e 68 161
e 69 72
e 69 75
e 69 100
e 69 105
e 69 117
e 69 118
e 69 134
e 69 145
e 69 151
e 69 161
e 69 187
e 69 195
e 69 199
e 70 79
e 70 89
e 70 96
e 70 97
e 70 115
e 70 116
e 70 120
e 70 129
e 70 133
e 70 137
e 70 140
e 70 156
e 70 161
e 70 169
e 70 174
e 70 178
e 70 179
e 70 184
e 70 195
e 71 77
e 71 81
e 71 93
e 71 104
e 71 108
e 71 129
e 71 134
e 71 165
e 71 172
e 71 174
e 71 195
e 71 197
e 72 81
e 72 91
e 72 105
e 72 114
e 72 136
e 72 149
e 72 157
e 72 158
e 72 177
e 72 179
e 73 75
e 73 80
e 73 86
e 73 88
e 73 91
e 73 92
e 73 105
e 73 108
e 73 114
e 73 115
e 73 119
e 73 121
e 73 133
e 73 142
e 73 152
e 73 153
e 73 158
e 73 159
e 73 174
e 73 202
e 74 79
e 74 96
e 74 126
e 74 128
e 74 129
e 74 130
e 74 131
e 74 138
e 74 181
e 74 198
e 75 95
e 75 102
e 75 110
e 75 111
e 75 132
e 75 142
e 75 146
e 75 158
e 75 183
e 75 186
e 75 188
e 75 189
e 75 200
e 76 80
e 76 85
e 76 94
e 76 96
e 76 115
e 76 118
e 76 133
e 76 143
e 76 160
e 76 163
e 76 166
e 76 168
e 76 172
e 76 190
e 77 88
e 77 93
e 77 98
e 77 102
e 77 117
e 77 118
e 77 142
e 77 182
e 77 200
e 78 92
e 78 98
e 78 99
e 78 114
e 78 117
e 78 123
e 78 127
e 78 130
e 78 144
e 78 157
e 78 162
e 78 166
e 78 183
e 78 190
e 78 193
e 79 93
e 79 96
e 79 111
e 79 125
e 79 127
e 79 144
e 79 153
e 79 175
e 79 188
e 80 83
e 80 84
e 80 89
e 80 90
e 80 91
e 80 103
e 80 113
e 80 115
e 80 118
e 80 128
e 80 136
e 80 146
e 80 150
e 80 153
e 80 154
e 80 162
e 80 170
e 80 183
e 80 190
e 80 196
e 81 82
e 81 95
e 81 112
e 81 120
e 81 122
e 81 124
e 81 151
e 81 156
e 81 161
e 81 169
e 81 170
e 81 180
e 81 184
e 81 187
e 81 196
e 82 89
e 82 95
e 82 105
e 82 120
e 82 126
e 82 142
e 82 150
e 82 152
e 83 97
e 83 116
e 83 118
e 83 125
e 83 126
e 83 139
e 83 156
e 83 189
e 84 114
e 84 124
e 84 126
e 84 167
e 84 179
e 84 186
e 84 193
e 84 201
e 85 88
e 85 93
e 85 97
e 85 99
e 85 104
e 85 120
e 85 122
e 85 146
e 85 188
e 85 197
e 85 200
e 86 95
e 86 100
e 86 104
e 86 107
e 86 116
e 86 119
e 86 138
e 86 150
e 86 157
e 86 184
e 86 189
e 86 200
e 87 90
e 87 116
e 87 123
e 87 139
e 87 158
e 87 159
e 87 168
e 87 174
e 87 202
e 88 91
e 88 108
e 88 110
e 88 114
e 88 130
e 88 133
e 88 144
e 88 183
e 88 190
e 88 195
e 89 99
e 89 103
e 89 105
e 89 112
e 89 145
e 89 173
e 89 177
e 90 96
e 90 104
e 90 106
e 90 117
e 90 123
e 90 140
e 90 147
e 90 163
e 91 94
e 91 98
e 91 116
e 91 125
e 91 148
e 91 160
e 91 173
e 91 187
e 92 95
e 92 107
e 92 111
e 92 113
e 92 117
e 92 130
e 92 136
e 92 155
e 92 168
e 92 180
e 93 98
e 93 100
e 93 104
e 93 106
e 93 136
e 93 153
e 93 178
e 93 181
e 93 199
e 93 201
e 94 140
e 94 151
e 94 167
e 94 170
e 94 198
e 95 116
e 95 129
e 95 138
e 95 161
e 95 167
e 95 185
e 96 102
e 96 111
e 96 113
e 96 114
e 96 146
e 96 172
e 97 123
e 97 159
e 97 163
e 97 174
e 97 176
e 98 107
e 98 133
e 98 149
e 98 174
e 98 181
e 98 186
e 98 189
e 98 202
e 99 101
e 99 126
e 99 129
e 99 131
e 99 137
e 99 140
e 99 152
e 99 178
e 99 196
e 100 103
e 100 112
e 100 118
e 100 120
e 100 124
e 100 130
e 100 145
e 100 147
e 100 151
e 100 156
e 100 161
e 100 171
e 100 174
e 100 195
e 100 200
e 101 112
e 101 125
e 101 128
e 101 187
e 101 192
e 101 198
e 102 104
e 102 106
e 102 116
e 102 125
e 102 141
e 102 146
e 102 153
e 102 191
e 103 107
e 103 109
e 103 111
e 103 120
e 103 182
e 103 198
e 104 105
e 104 116
e 104 127
e 104 147
e 104 194
e 104 198
e 105 162
e 105 166
e 105 195
e 106 110
e 106 143
e 106 170
e 106 185
e 106 187
e 106 188
e 106 200
e 107 111
e 107 114
e 107 122
e 107 124
e 107 142
e 107 143
e 107 148
e 107 152
e 107 158
e 107 165
e 107 166
e 107 200
e 108 116
e 108 119
e 108 123
e 108 131
e 108 161
e 108 177
e 108 178
e 108 180
e 109 112
e 109 124
e 109 136
e 109 137
e 109 144
e 109 156
e 109 159
e 109 175
e 109 176
e 109 192
e 109 202
e 110 114
e 110 117
e 110 118
e 110 125
e 110 127
e 110 136
e 110 163
e 110 173
e 110 191
e 111 124
e 111 131
e 111 133
e 111 135
e 112 123
e 112 128
e 112 155
e 112 156
e 112 167
e 112 173
e 112 174
e 112 184
e 112 185
e 112 192
e 112 199
e 112 201
e 112 202
e 113 136
e 113 149
e 113 150
e 113 169
e 113 180
e 113 186
e 113 195
e 114 119
e 114 131
e 114 143
e 114 149
e 114 158
e 114 202
e 115 121
e 115 131
e 115 132
e 115 137
e 115 162
e 115 196
e 115 197
e 116 157
e 116 163
e 116 178
e 116 180
e 116 192
e 117 120
e 117 123
e 117 125
e 117 129
e 117 137
e 117 160
e 117 164
e 117 166
e 117 167
e 117 171
e 117 178
e 117 190
e 118 135
e 118 150
e 118 154
e 119 138
e 119 173
e 120 132
e 120 141
e 120 146
e 120 153
e 121 126
e 121 128
e 121 137
e 121 155
e 122 128
e 122 148
e 122 149
e 122 153
e 122 158
e 122 165
e 122 169
e 122 182
e 122 186
e 122 194
e 122 202
e 123 149
e 123 152
e 123 159
e 123 193
e 124 137
e 124 141
e 124 142
e 124 160
e 124 165
e 124 177
e 124 188
e 124 196
e 124 201
e 125 139
e 125 140
e 125 141
e 125 149
e 125 162
e 125 168
e 125 169
e 125 172
e 125 179
e 125 201
e 126 191
e 127 132
e 127 135
e 127 160
e 127 180
e 127 189
e 127 197
e 128 132
e 128 140
e 128 154
e 128 182
e 129 134
e 129 141
e 129 145
e 129 179
e 129 180
e 129 183
e 130 131
e 130 143
e 130 182
e 131 142
e 131 184
e 131 188
e 131 193
e 132 139
e 132 141
e 132 145
e 132 146
e 132 172
e 132 183
e 133 136
e 133 152
e 133 164
e 133 185
e 134 153
e 134 168
e 134 191
e 135 178
e 136 149
e 136 184
e 137 139
e 137 140
e 137 142
e 137 155
e 137 159
e 137 162
e 137 164
e 137 167
e 137 168
e 137 171
e 137 175
e 137 179
e 137 181
e 137 188
e 137 189
e 137 196
e 137 199
e 139 192
e 139 197
e 139 199
e 140 144
e 140 151
e 140 165
e 140 175
e 141 177
e 142 144
e 142 145
e 142 160
e 142 169
e 142 199
e 143 157
e 143 166
e 143 173
e 143 178
e 143 180
e 143 186
e 144 160
e 144 176
e 144 188
e 144 192
e 144 198
e 145 200
e 146 150
e 146 174
e 146 179
e 146 191
e 147 166
e 147 175
e 147 176
e 147 182
e 147 185
e 147 191
e 147 192
e 147 202
e 148 158
e 148 166
e 148 170
e 149 151
e 149 161
e 149 166
e 149 177
e 150 157
e 150 165
e 150 176
e 150 183
e 150 190
e 150 197
e 151 153
e 151 154
e 151 161
e 151 178
e 152 154
e 152 155
e 152 190
e 153 193
e 154 157
e 154 192
e 154 199
e 155 169
e 155 186
e 156 165
e 156 167
e 156 168
e 156 183
e 156 185
e 156 193
e 156 200
e 157 176
e 157 195
e 158 172
e 158 201
e 158 202
e 160 172
e 161 166
e 161 168
e 161 176
e 161 190
e 162 163
e 162 186
e 162 193
e 163 187
e 165 177
e 167 169
e 167 176
e 167 194
e 168 181
e 168 192
e 169 189
e 170 172
e 170 183
e 170 184
e 170 186
e 170 198
e 171 201
e 172 179
e 173 187
e 174 182
e 174 184
e 175 187
e 176 191
e 176 199
e 177 185
e 177 192
e 177 194
e 177 200
e 178 186
e 178 187
e 178 191
e 178 199
e 179 185
e 179 201
e 180 201
e 181 189
e 182 185
e 184 197
e 185 197
e 187 193
e 188 190
e 188 196
e 190 195
e 194 196
e 195 198
